K = 15;

P = [ 95 44 100 69 30 89 64 99 73 81 93 82 21 24 10 ];

R = [ 1 50 47 45 27 50 15 20 13 35 46 2 27 36 16 ];

A = [ 2 5 4 2 3 6 4 3 4 3 4 6 6 6 2 ];

C = [ 5 3 4 9 3 6 7 3 6 9 8 7 8 3 4 ];

N = 8;

M = [
[ 0 2 23 18 47 18 32 13 ]
[ 2 0 19 28 33 31 15 18 ]
[ 23 19 0 3 19 16 46 11 ]
[ 18 28 3 0 12 13 31 4 ]
[ 47 33 19 12 0 36 47 48 ]
[ 18 31 16 13 36 0 18 26 ]
[ 32 15 46 31 47 18 0 28 ]
[ 13 18 11 4 48 26 28 0 ]
 ];

